p edge 260 780
e 1 24
e 1 97
e 1 114
e 2 3
e 2 93
e 2 245
e 3 189
e 3 207
e 3 224
e 4 77
e 4 88
e 4 120
e 5 163
e 5 192
e 5 228
e 6 15
e 6 70
e 6 142
e 7 16
e 7 75
e 7 195
e 8 136
e 8 160
e 8 211
e 9 142
e 9 171
e 9 239
e 10 23
e 10 125
e 10 154
e 11 50
e 11 198
e 11 250
e 12 126
e 12 221
e 12 254
e 13 91
e 13 120
e 13 229
e 14 20
e 14 212
e 14 242
e 15 167
e 15 177
e 15 251
e 16 72
e 16 130
e 16 250
e 17 5
e 17 133
e 17 152
e 18 20
e 18 98
e 18 165
e 19 156
e 19 187
e 19 228
e 20 2
e 20 185
e 20 200
e 21 87
e 21 109
e 21 198
e 22 71
e 22 86
e 22 118
e 23 78
e 23 171
e 23 181
e 24 56
e 24 181
e 24 256
e 25 19
e 25 61
e 25 177
e 26 39
e 26 139
e 26 238
e 27 16
e 27 231
e 27 260
e 28 158
e 28 238
e 28 252
e 29 34
e 29 177
e 29 212
e 30 19
e 30 26
e 30 250
e 31 47
e 31 97
e 31 216
e 32 12
e 32 51
e 32 141
e 33 1
e 33 237
e 33 238
e 34 150
e 34 156
e 34 164
e 35 34
e 35 151
e 35 170
e 36 104
e 36 115
e 36 194
e 37 8
e 37 94
e 37 169
e 38 137
e 38 171
e 38 189
e 39 60
e 39 147
e 39 184
e 40 23
e 40 99
e 40 236
e 41 49
e 41 74
e 41 76
e 42 41
e 42 146
e 42 221
e 43 44
e 43 46
e 43 239
e 44 24
e 44 70
e 44 129
e 45 92
e 45 95
e 45 226
e 46 10
e 46 218
e 46 250
e 47 117
e 47 130
e 47 192
e 48 64
e 48 134
e 48 192
e 49 6
e 49 213
e 49 239
e 50 92
e 50 144
e 50 257
e 51 78
e 51 104
e 51 160
e 52 69
e 52 193
e 52 247
e 53 47
e 53 85
e 53 120
e 54 57
e 54 144
e 54 239
e 55 77
e 55 100
e 55 103
e 56 135
e 56 176
e 56 251
e 57 24
e 57 111
e 57 137
e 58 9
e 58 35
e 58 201
e 59 52
e 59 207
e 59 210
e 60 15
e 60 69
e 60 178
e 61 45
e 61 50
e 61 58
e 62 108
e 62 157
e 62 183
e 63 59
e 63 88
e 63 196
e 64 43
e 64 169
e 64 209
e 65 3
e 65 134
e 65 173
e 66 16
e 66 53
e 66 140
e 67 40
e 67 171
e 67 211
e 68 167
e 68 180
e 68 216
e 69 63
e 69 194
e 69 218
e 70 50
e 70 107
e 70 192
e 71 143
e 71 173
e 71 206
e 72 38
e 72 133
e 72 239
e 73 49
e 73 174
e 73 247
e 74 96
e 74 232
e 74 239
e 75 47
e 75 188
e 75 197
e 76 91
e 76 113
e 76 118
e 77 14
e 77 223
e 77 237
e 78 167
e 78 197
e 78 220
e 79 2
e 79 102
e 79 234
e 80 13
e 80 76
e 80 146
e 81 8
e 81 233
e 81 260
e 82 33
e 82 90
e 82 240
e 83 42
e 83 248
e 83 249
e 84 148
e 84 257
e 84 259
e 85 178
e 85 181
e 85 202
e 86 88
e 86 190
e 86 195
e 87 138
e 87 169
e 87 222
e 88 14
e 88 142
e 88 233
e 89 27
e 89 83
e 89 165
e 90 1
e 90 95
e 90 113
e 91 1
e 91 144
e 91 231
e 92 112
e 92 207
e 92 237
e 93 38
e 93 54
e 93 116
e 94 16
e 94 89
e 94 210
e 95 172
e 95 182
e 95 223
e 96 143
e 96 179
e 96 234
e 97 138
e 97 222
e 97 231
e 98 3
e 98 140
e 98 176
e 99 8
e 99 31
e 99 125
e 100 2
e 100 134
e 100 178
e 101 58
e 101 125
e 101 195
e 102 19
e 102 73
e 102 112
e 103 8
e 103 216
e 103 235
e 104 134
e 104 161
e 104 235
e 105 38
e 105 55
e 105 145
e 106 69
e 106 171
e 106 228
e 107 47
e 107 115
e 107 254
e 108 103
e 108 147
e 108 156
e 109 34
e 109 90
e 109 216
e 110 127
e 110 191
e 110 244
e 111 37
e 111 208
e 111 256
e 112 86
e 112 89
e 112 177
e 113 57
e 113 174
e 113 253
e 114 26
e 114 39
e 114 224
e 115 195
e 115 196
e 115 229
e 116 88
e 116 113
e 116 253
e 117 35
e 117 71
e 117 185
e 118 12
e 118 142
e 118 149
e 119 27
e 119 44
e 119 67
e 120 15
e 120 121
e 120 196
e 121 114
e 121 119
e 121 188
e 122 25
e 122 106
e 122 175
e 123 11
e 123 32
e 123 125
e 124 17
e 124 219
e 124 248
e 125 17
e 125 30
e 125 79
e 126 44
e 126 114
e 126 158
e 127 104
e 127 115
e 127 163
e 128 76
e 128 118
e 128 161
e 129 213
e 129 219
e 129 234
e 130 26
e 130 199
e 130 248
e 131 26
e 131 128
e 131 181
e 132 19
e 132 32
e 132 88
e 133 162
e 133 205
e 133 228
e 134 126
e 134 131
e 134 229
e 135 115
e 135 205
e 135 217
e 136 4
e 136 62
e 136 72
e 137 39
e 137 100
e 137 150
e 138 21
e 138 132
e 138 178
e 139 10
e 139 35
e 139 66
e 140 145
e 140 197
e 140 251
e 141 92
e 141 145
e 141 236
e 142 94
e 142 163
e 142 259
e 143 83
e 143 138
e 143 211
e 144 155
e 144 159
e 144 228
e 145 71
e 145 164
e 145 229
e 146 16
e 146 216
e 146 254
e 147 12
e 147 78
e 147 126
e 148 43
e 148 94
e 148 199
e 149 27
e 149 45
e 149 143
e 150 103
e 150 121
e 150 219
e 151 152
e 151 158
e 151 257
e 152 43
e 152 97
e 152 124
e 153 52
e 153 63
e 153 174
e 154 100
e 154 122
e 154 229
e 155 82
e 155 90
e 155 239
e 156 123
e 156 165
e 156 177
e 157 65
e 157 256
e 157 258
e 158 75
e 158 122
e 158 242
e 159 81
e 159 106
e 159 152
e 160 42
e 160 116
e 160 232
e 161 35
e 161 230
e 161 253
e 162 71
e 162 118
e 162 192
e 163 178
e 163 246
e 163 246
e 164 62
e 164 83
e 164 94
e 165 141
e 165 174
e 165 260
e 166 204
e 166 214
e 166 257
e 167 9
e 167 65
e 167 78
e 168 129
e 168 225
e 168 259
e 169 68
e 169 196
e 169 251
e 170 85
e 170 228
e 170 229
e 171 132
e 171 157
e 171 172
e 172 93
e 172 224
e 172 225
e 173 2
e 173 87
e 173 217
e 174 58
e 174 82
e 174 167
e 175 84
e 175 108
e 175 209
e 176 28
e 176 100
e 176 197
e 177 115
e 177 139
e 177 241
e 178 33
e 178 90
e 178 93
e 179 38
e 179 44
e 179 256
e 180 47
e 180 126
e 180 256
e 181 212
e 181 213
e 181 217
e 182 124
e 182 154
e 182 227
e 183 94
e 183 161
e 183 220
e 184 105
e 184 151
e 184 152
e 185 39
e 185 119
e 185 155
e 186 183
e 186 222
e 186 251
e 187 153
e 187 214
e 187 251
e 188 15
e 188 157
e 188 252
e 189 110
e 189 170
e 189 182
e 190 115
e 190 150
e 190 205
e 191 2
e 191 13
e 191 162
e 192 114
e 192 116
e 192 121
e 193 82
e 193 151
e 193 152
e 194 19
e 194 20
e 194 80
e 195 18
e 195 123
e 195 126
e 196 14
e 196 37
e 196 82
e 197 9
e 197 101
e 197 136
e 198 1
e 198 45
e 198 235
e 199 108
e 199 127
e 199 228
e 200 130
e 200 151
e 200 254
e 201 13
e 201 30
e 201 117
e 202 107
e 202 167
e 202 176
e 203 99
e 203 186
e 203 190
e 204 124
e 204 140
e 204 230
e 205 7
e 205 174
e 205 243
e 206 146
e 206 161
e 206 244
e 207 22
e 207 159
e 207 186
e 208 89
e 208 209
e 208 232
e 209 74
e 209 103
e 209 123
e 210 4
e 210 227
e 210 228
e 211 12
e 211 112
e 211 214
e 212 59
e 212 112
e 212 182
e 213 28
e 213 33
e 213 120
e 214 87
e 214 173
e 214 244
e 215 6
e 215 26
e 215 42
e 216 80
e 216 143
e 216 201
e 217 19
e 217 29
e 217 255
e 218 121
e 218 247
e 218 249
e 219 56
e 219 91
e 219 238
e 220 39
e 220 126
e 220 128
e 221 65
e 221 136
e 221 161
e 222 62
e 222 154
e 222 224
e 223 36
e 223 182
e 223 257
e 224 142
e 224 156
e 224 166
e 225 60
e 225 108
e 225 252
e 226 127
e 226 135
e 226 256
e 227 177
e 227 219
e 227 258
e 228 64
e 228 119
e 228 210
e 229 76
e 229 102
e 229 132
e 230 102
e 230 168
e 230 255
e 231 108
e 231 119
e 231 243
e 232 179
e 232 244
e 232 258
e 233 70
e 233 104
e 233 245
e 234 40
e 234 53
e 234 246
e 235 66
e 235 245
e 235 259
e 236 202
e 236 210
e 236 220
e 237 145
e 237 161
e 237 236
e 238 46
e 238 66
e 238 135
e 239 16
e 239 104
e 239 191
e 240 51
e 240 94
e 240 95
e 241 89
e 241 101
e 241 255
e 242 85
e 242 95
e 242 230
e 243 81
e 243 137
e 243 220
e 244 34
e 244 79
e 244 212
e 245 61
e 245 151
e 245 201
e 246 53
e 246 98
e 246 168
e 247 59
e 247 168
e 247 184
e 248 22
e 248 43
e 248 165
e 249 22
e 249 144
e 249 215
e 250 209
e 250 214
e 250 236
e 251 7
e 251 99
e 251 164
e 252 22
e 252 151
e 252 175
e 253 11
e 253 156
e 253 203
e 254 89
e 254 114
e 254 168
e 255 43
e 255 54
e 255 190
e 256 18
e 256 37
e 256 209
e 257 50
e 257 116
e 257 142
e 258 18
e 258 48
e 258 121
e 259 9
e 259 26
e 259 56
e 260 66
e 260 101
e 260 201
